p wcnf 115 172 173 
1 -104 -49 0 
1 39 44 0 
1 -44 31 0 
1 -78 75 0 
1 95 31 0 
1 -89 82 0 
1 90 87 0 
1 -103 -18 0 
1 4 -31 0 
1 30 78 0 
1 44 -102 0 
1 -100 99 0 
1 69 -106 0 
1 -58 54 0 
1 -81 80 0 
1 -38 -35 0 
1 -42 -83 0 
1 -16 71 0 
1 77 26 0 
1 -103 -115 0 
1 -91 -55 0 
1 -108 -18 0 
1 35 -4 0 
1 68 90 0 
1 -80 89 0 
1 -16 -85 0 
1 -16 -29 0 
1 83 35 0 
1 -25 40 0 
1 50 -65 0 
1 57 -15 0 
1 12 51 0 
1 9 -38 0 
1 -89 -3 0 
1 -7 -104 0 
1 111 -99 0 
1 -74 91 0 
1 -50 -63 0 
1 -32 -113 0 
1 65 82 0 
1 -56 -87 0 
1 -76 65 0 
1 37 -19 0 
1 95 -18 0 
1 -19 58 0 
1 -37 -108 0 
1 46 59 0 
1 15 -33 0 
1 -75 8 0 
1 112 -52 0 
1 68 64 0 
1 34 -67 0 
1 33 -42 0 
1 -29 92 0 
1 -13 89 0 
1 15 65 0 
1 -70 14 0 
1 106 -5 0 
1 -49 -7 0 
1 23 -75 0 
1 27 25 0 
1 19 114 0 
1 8 -12 0 
1 48 -102 0 
1 81 82 0 
1 21 27 0 
1 32 -53 0 
1 -27 -114 0 
1 -34 -12 0 
1 46 -64 0 
1 45 -6 0 
1 -101 32 0 
1 -57 47 0 
1 -84 54 0 
1 -98 -55 0 
1 52 12 0 
1 42 -19 0 
1 -112 -27 0 
1 12 -52 0 
1 72 91 0 
1 48 32 0 
1 -44 104 0 
1 57 40 0 
1 -69 -102 0 
1 18 80 0 
1 92 109 0 
1 -94 -82 0 
1 -39 -57 0 
1 -71 -3 0 
1 49 -108 0 
1 60 -51 0 
1 -93 3 0 
1 -6 26 0 
1 31 -32 0 
1 -51 5 0 
1 -6 -3 0 
1 20 -87 0 
1 111 64 0 
1 7 -86 0 
1 65 -70 0 
1 -64 -62 0 
1 6 91 0 
1 -111 16 0 
1 50 46 0 
1 57 89 0 
1 80 -79 0 
1 -58 41 0 
1 -35 -36 0 
1 -38 -57 0 
1 91 -68 0 
1 20 -30 0 
1 84 -14 0 
1 -93 -21 0 
1 81 -111 0 
1 -76 63 0 
1 -72 -52 0 
1 -82 -44 0 
1 95 -92 0 
1 -61 -113 0 
1 61 74 0 
1 -85 -76 0 
1 65 -32 0 
1 46 5 0 
1 -112 16 0 
1 -49 25 0 
1 -103 -87 0 
1 62 29 0 
1 -42 91 0 
1 -69 -26 0 
1 -104 54 0 
1 35 -66 0 
1 -110 -36 0 
1 -53 54 0 
1 -76 -77 0 
1 -89 103 0 
1 48 88 0 
1 -67 40 0 
1 74 -13 0 
1 8 -90 0 
1 109 -113 0 
1 -79 -60 0 
1 106 37 0 
1 -98 -74 0 
1 -21 -82 0 
1 80 -46 0 
1 80 84 0 
1 73 97 0 
1 -86 -31 0 
1 -103 39 0 
1 23 5 0 
1 -32 -105 0 
1 -25 2 0 
1 -16 66 0 
1 -51 81 0 
1 102 -22 0 
1 -14 103 0 
1 58 -29 0 
1 -48 100 0 
1 92 20 0 
1 73 -15 0 
1 -78 -46 0 
1 -113 -86 0 
1 -28 11 0 
1 53 8 0 
1 20 105 0 
1 81 68 0 
1 -114 -96 0 
1 -60 34 0 
1 -89 -69 0 
1 66 85 0 
1 110 -88 0 
1 -34 -65 0 
